; Options: -in -smt2
(set-option :produce-unsat-assumptions true)

(declare-fun start!2977 () Bool)

(assert start!2977)

(declare-fun b_free!43 () Bool)

(declare-fun b_next!43 () Bool)

(assert (=> start!2977 (= b_free!43 (not b_next!43))))

(declare-fun tp!65 () Bool)

(declare-fun b_and!369 () Bool)

(assert (=> start!2977 (= tp!65 b_and!369)))

(declare-fun b!16871 () Bool)

(declare-fun res!13419 () Bool)

(declare-fun e!9170 () Bool)

(assert (=> b!16871 (=> (not res!13419) (not e!9170))))

(declare-fun P!6 () Int)

(declare-datatypes ((array!1382 0))(
  ( (array!1383 (arr!608 (Array (_ BitVec 32) (_ BitVec 32))) (size!608 (_ BitVec 32))) )
))
(declare-fun a!13 () array!1382)

(declare-fun dynLambda!60 (Int (_ BitVec 32)) Bool)

(assert (=> b!16871 (= res!13419 (dynLambda!60 P!6 (select (arr!608 a!13) #b00000000000000000000000000001110)))))

(declare-fun b!16872 () Bool)

(declare-fun res!13426 () Bool)

(assert (=> b!16872 (=> (not res!13426) (not e!9170))))

(assert (=> b!16872 (= res!13426 (dynLambda!60 P!6 (select (arr!608 a!13) #b00000000000000000000000000000111)))))

(declare-fun b!16873 () Bool)

(declare-fun res!13435 () Bool)

(assert (=> b!16873 (=> (not res!13435) (not e!9170))))

(assert (=> b!16873 (= res!13435 (dynLambda!60 P!6 (select (arr!608 a!13) #b00000000000000000000000000001010)))))

(declare-fun b!16874 () Bool)

(declare-fun res!13430 () Bool)

(assert (=> b!16874 (=> (not res!13430) (not e!9170))))

(assert (=> b!16874 (= res!13430 (dynLambda!60 P!6 (select (arr!608 a!13) #b00000000000000000000000000000110)))))

(declare-fun b!16875 () Bool)

(declare-fun res!13423 () Bool)

(assert (=> b!16875 (=> (not res!13423) (not e!9170))))

(assert (=> b!16875 (= res!13423 (dynLambda!60 P!6 (select (arr!608 a!13) #b00000000000000000000000000000101)))))

(declare-fun b!16876 () Bool)

(declare-fun res!13429 () Bool)

(assert (=> b!16876 (=> (not res!13429) (not e!9170))))

(assert (=> b!16876 (= res!13429 (dynLambda!60 P!6 (select (arr!608 a!13) #b00000000000000000000000000001001)))))

(declare-fun b!16877 () Bool)

(declare-fun res!13432 () Bool)

(assert (=> b!16877 (=> (not res!13432) (not e!9170))))

(assert (=> b!16877 (= res!13432 (dynLambda!60 P!6 (select (arr!608 a!13) #b00000000000000000000000000000010)))))

(declare-fun b!16879 () Bool)

(assert (=> b!16879 (= e!9170 (bvsge #b00000000000000000000000000010010 (size!608 a!13)))))

(declare-fun b!16880 () Bool)

(declare-fun res!13434 () Bool)

(assert (=> b!16880 (=> (not res!13434) (not e!9170))))

(assert (=> b!16880 (= res!13434 (dynLambda!60 P!6 (select (arr!608 a!13) #b00000000000000000000000000000000)))))

(declare-fun b!16881 () Bool)

(declare-fun res!13422 () Bool)

(assert (=> b!16881 (=> (not res!13422) (not e!9170))))

(assert (=> b!16881 (= res!13422 (dynLambda!60 P!6 (select (arr!608 a!13) #b00000000000000000000000000010001)))))

(declare-fun b!16882 () Bool)

(declare-fun res!13428 () Bool)

(assert (=> b!16882 (=> (not res!13428) (not e!9170))))

(assert (=> b!16882 (= res!13428 (dynLambda!60 P!6 (select (arr!608 a!13) #b00000000000000000000000000010000)))))

(declare-fun b!16883 () Bool)

(declare-fun res!13424 () Bool)

(assert (=> b!16883 (=> (not res!13424) (not e!9170))))

(assert (=> b!16883 (= res!13424 (dynLambda!60 P!6 (select (arr!608 a!13) #b00000000000000000000000000000100)))))

(declare-fun b!16884 () Bool)

(declare-fun res!13420 () Bool)

(assert (=> b!16884 (=> (not res!13420) (not e!9170))))

(assert (=> b!16884 (= res!13420 (dynLambda!60 P!6 (select (arr!608 a!13) #b00000000000000000000000000001100)))))

(declare-fun b!16885 () Bool)

(declare-fun res!13427 () Bool)

(assert (=> b!16885 (=> (not res!13427) (not e!9170))))

(assert (=> b!16885 (= res!13427 (dynLambda!60 P!6 (select (arr!608 a!13) #b00000000000000000000000000001101)))))

(declare-fun b!16886 () Bool)

(declare-fun res!13437 () Bool)

(assert (=> b!16886 (=> (not res!13437) (not e!9170))))

(assert (=> b!16886 (= res!13437 (dynLambda!60 P!6 (select (arr!608 a!13) #b00000000000000000000000000000011)))))

(declare-fun b!16887 () Bool)

(declare-fun res!13433 () Bool)

(assert (=> b!16887 (=> (not res!13433) (not e!9170))))

(assert (=> b!16887 (= res!13433 (dynLambda!60 P!6 (select (arr!608 a!13) #b00000000000000000000000000001111)))))

(declare-fun b!16888 () Bool)

(declare-fun res!13421 () Bool)

(assert (=> b!16888 (=> (not res!13421) (not e!9170))))

(assert (=> b!16888 (= res!13421 (dynLambda!60 P!6 (select (arr!608 a!13) #b00000000000000000000000000001000)))))

(declare-fun b!16889 () Bool)

(declare-fun res!13431 () Bool)

(assert (=> b!16889 (=> (not res!13431) (not e!9170))))

(assert (=> b!16889 (= res!13431 (dynLambda!60 P!6 (select (arr!608 a!13) #b00000000000000000000000000000001)))))

(declare-fun b!16878 () Bool)

(declare-fun res!13436 () Bool)

(assert (=> b!16878 (=> (not res!13436) (not e!9170))))

(assert (=> b!16878 (= res!13436 (dynLambda!60 P!6 (select (arr!608 a!13) #b00000000000000000000000000001011)))))

(declare-fun res!13425 () Bool)

(assert (=> start!2977 (=> (not res!13425) (not e!9170))))

(assert (=> start!2977 (= res!13425 (= (size!608 a!13) #b00000000000000000000000000010100))))

(assert (=> start!2977 e!9170))

(declare-fun array_inv!556 (array!1382) Bool)

(assert (=> start!2977 (array_inv!556 a!13)))

(assert (=> start!2977 tp!65))

(assert (= (and start!2977 res!13425) b!16880))

(assert (= (and b!16880 res!13434) b!16889))

(assert (= (and b!16889 res!13431) b!16877))

(assert (= (and b!16877 res!13432) b!16886))

(assert (= (and b!16886 res!13437) b!16883))

(assert (= (and b!16883 res!13424) b!16875))

(assert (= (and b!16875 res!13423) b!16874))

(assert (= (and b!16874 res!13430) b!16872))

(assert (= (and b!16872 res!13426) b!16888))

(assert (= (and b!16888 res!13421) b!16876))

(assert (= (and b!16876 res!13429) b!16873))

(assert (= (and b!16873 res!13435) b!16878))

(assert (= (and b!16878 res!13436) b!16884))

(assert (= (and b!16884 res!13420) b!16885))

(assert (= (and b!16885 res!13427) b!16871))

(assert (= (and b!16871 res!13419) b!16887))

(assert (= (and b!16887 res!13433) b!16882))

(assert (= (and b!16882 res!13428) b!16881))

(assert (= (and b!16881 res!13422) b!16879))

(declare-fun b_lambda!6907 () Bool)

(assert (=> (not b_lambda!6907) (not b!16872)))

(declare-fun t!517 () Bool)

(declare-fun tb!327 () Bool)

(assert (=> (and start!2977 (= P!6 P!6) t!517) tb!327))

(declare-fun result!327 () Bool)

(assert (=> tb!327 (= result!327 true)))

(assert (=> b!16872 t!517))

(declare-fun b_and!371 () Bool)

(assert (= b_and!369 (and (=> t!517 result!327) b_and!371)))

(declare-fun b_lambda!6909 () Bool)

(assert (=> (not b_lambda!6909) (not b!16874)))

(declare-fun t!519 () Bool)

(declare-fun tb!329 () Bool)

(assert (=> (and start!2977 (= P!6 P!6) t!519) tb!329))

(declare-fun result!329 () Bool)

(assert (=> tb!329 (= result!329 true)))

(assert (=> b!16874 t!519))

(declare-fun b_and!373 () Bool)

(assert (= b_and!371 (and (=> t!519 result!329) b_and!373)))

(declare-fun b_lambda!6911 () Bool)

(assert (=> (not b_lambda!6911) (not b!16881)))

(declare-fun t!521 () Bool)

(declare-fun tb!331 () Bool)

(assert (=> (and start!2977 (= P!6 P!6) t!521) tb!331))

(declare-fun result!331 () Bool)

(assert (=> tb!331 (= result!331 true)))

(assert (=> b!16881 t!521))

(declare-fun b_and!375 () Bool)

(assert (= b_and!373 (and (=> t!521 result!331) b_and!375)))

(declare-fun b_lambda!6913 () Bool)

(assert (=> (not b_lambda!6913) (not b!16876)))

(declare-fun t!523 () Bool)

(declare-fun tb!333 () Bool)

(assert (=> (and start!2977 (= P!6 P!6) t!523) tb!333))

(declare-fun result!333 () Bool)

(assert (=> tb!333 (= result!333 true)))

(assert (=> b!16876 t!523))

(declare-fun b_and!377 () Bool)

(assert (= b_and!375 (and (=> t!523 result!333) b_and!377)))

(declare-fun b_lambda!6915 () Bool)

(assert (=> (not b_lambda!6915) (not b!16882)))

(declare-fun t!525 () Bool)

(declare-fun tb!335 () Bool)

(assert (=> (and start!2977 (= P!6 P!6) t!525) tb!335))

(declare-fun result!335 () Bool)

(assert (=> tb!335 (= result!335 true)))

(assert (=> b!16882 t!525))

(declare-fun b_and!379 () Bool)

(assert (= b_and!377 (and (=> t!525 result!335) b_and!379)))

(declare-fun b_lambda!6917 () Bool)

(assert (=> (not b_lambda!6917) (not b!16888)))

(declare-fun t!527 () Bool)

(declare-fun tb!337 () Bool)

(assert (=> (and start!2977 (= P!6 P!6) t!527) tb!337))

(declare-fun result!337 () Bool)

(assert (=> tb!337 (= result!337 true)))

(assert (=> b!16888 t!527))

(declare-fun b_and!381 () Bool)

(assert (= b_and!379 (and (=> t!527 result!337) b_and!381)))

(declare-fun b_lambda!6919 () Bool)

(assert (=> (not b_lambda!6919) (not b!16880)))

(declare-fun t!529 () Bool)

(declare-fun tb!339 () Bool)

(assert (=> (and start!2977 (= P!6 P!6) t!529) tb!339))

(declare-fun result!339 () Bool)

(assert (=> tb!339 (= result!339 true)))

(assert (=> b!16880 t!529))

(declare-fun b_and!383 () Bool)

(assert (= b_and!381 (and (=> t!529 result!339) b_and!383)))

(declare-fun b_lambda!6921 () Bool)

(assert (=> (not b_lambda!6921) (not b!16887)))

(declare-fun t!531 () Bool)

(declare-fun tb!341 () Bool)

(assert (=> (and start!2977 (= P!6 P!6) t!531) tb!341))

(declare-fun result!341 () Bool)

(assert (=> tb!341 (= result!341 true)))

(assert (=> b!16887 t!531))

(declare-fun b_and!385 () Bool)

(assert (= b_and!383 (and (=> t!531 result!341) b_and!385)))

(declare-fun b_lambda!6923 () Bool)

(assert (=> (not b_lambda!6923) (not b!16889)))

(declare-fun t!533 () Bool)

(declare-fun tb!343 () Bool)

(assert (=> (and start!2977 (= P!6 P!6) t!533) tb!343))

(declare-fun result!343 () Bool)

(assert (=> tb!343 (= result!343 true)))

(assert (=> b!16889 t!533))

(declare-fun b_and!387 () Bool)

(assert (= b_and!385 (and (=> t!533 result!343) b_and!387)))

(declare-fun b_lambda!6925 () Bool)

(assert (=> (not b_lambda!6925) (not b!16885)))

(declare-fun t!535 () Bool)

(declare-fun tb!345 () Bool)

(assert (=> (and start!2977 (= P!6 P!6) t!535) tb!345))

(declare-fun result!345 () Bool)

(assert (=> tb!345 (= result!345 true)))

(assert (=> b!16885 t!535))

(declare-fun b_and!389 () Bool)

(assert (= b_and!387 (and (=> t!535 result!345) b_and!389)))

(declare-fun b_lambda!6927 () Bool)

(assert (=> (not b_lambda!6927) (not b!16871)))

(declare-fun t!537 () Bool)

(declare-fun tb!347 () Bool)

(assert (=> (and start!2977 (= P!6 P!6) t!537) tb!347))

(declare-fun result!347 () Bool)

(assert (=> tb!347 (= result!347 true)))

(assert (=> b!16871 t!537))

(declare-fun b_and!391 () Bool)

(assert (= b_and!389 (and (=> t!537 result!347) b_and!391)))

(declare-fun b_lambda!6929 () Bool)

(assert (=> (not b_lambda!6929) (not b!16886)))

(declare-fun t!539 () Bool)

(declare-fun tb!349 () Bool)

(assert (=> (and start!2977 (= P!6 P!6) t!539) tb!349))

(declare-fun result!349 () Bool)

(assert (=> tb!349 (= result!349 true)))

(assert (=> b!16886 t!539))

(declare-fun b_and!393 () Bool)

(assert (= b_and!391 (and (=> t!539 result!349) b_and!393)))

(declare-fun b_lambda!6931 () Bool)

(assert (=> (not b_lambda!6931) (not b!16875)))

(declare-fun t!541 () Bool)

(declare-fun tb!351 () Bool)

(assert (=> (and start!2977 (= P!6 P!6) t!541) tb!351))

(declare-fun result!351 () Bool)

(assert (=> tb!351 (= result!351 true)))

(assert (=> b!16875 t!541))

(declare-fun b_and!395 () Bool)

(assert (= b_and!393 (and (=> t!541 result!351) b_and!395)))

(declare-fun b_lambda!6933 () Bool)

(assert (=> (not b_lambda!6933) (not b!16877)))

(declare-fun t!543 () Bool)

(declare-fun tb!353 () Bool)

(assert (=> (and start!2977 (= P!6 P!6) t!543) tb!353))

(declare-fun result!353 () Bool)

(assert (=> tb!353 (= result!353 true)))

(assert (=> b!16877 t!543))

(declare-fun b_and!397 () Bool)

(assert (= b_and!395 (and (=> t!543 result!353) b_and!397)))

(declare-fun b_lambda!6935 () Bool)

(assert (=> (not b_lambda!6935) (not b!16873)))

(declare-fun t!545 () Bool)

(declare-fun tb!355 () Bool)

(assert (=> (and start!2977 (= P!6 P!6) t!545) tb!355))

(declare-fun result!355 () Bool)

(assert (=> tb!355 (= result!355 true)))

(assert (=> b!16873 t!545))

(declare-fun b_and!399 () Bool)

(assert (= b_and!397 (and (=> t!545 result!355) b_and!399)))

(declare-fun b_lambda!6937 () Bool)

(assert (=> (not b_lambda!6937) (not b!16878)))

(declare-fun t!547 () Bool)

(declare-fun tb!357 () Bool)

(assert (=> (and start!2977 (= P!6 P!6) t!547) tb!357))

(declare-fun result!357 () Bool)

(assert (=> tb!357 (= result!357 true)))

(assert (=> b!16878 t!547))

(declare-fun b_and!401 () Bool)

(assert (= b_and!399 (and (=> t!547 result!357) b_and!401)))

(declare-fun b_lambda!6939 () Bool)

(assert (=> (not b_lambda!6939) (not b!16883)))

(declare-fun t!549 () Bool)

(declare-fun tb!359 () Bool)

(assert (=> (and start!2977 (= P!6 P!6) t!549) tb!359))

(declare-fun result!359 () Bool)

(assert (=> tb!359 (= result!359 true)))

(assert (=> b!16883 t!549))

(declare-fun b_and!403 () Bool)

(assert (= b_and!401 (and (=> t!549 result!359) b_and!403)))

(declare-fun b_lambda!6941 () Bool)

(assert (=> (not b_lambda!6941) (not b!16884)))

(declare-fun t!551 () Bool)

(declare-fun tb!361 () Bool)

(assert (=> (and start!2977 (= P!6 P!6) t!551) tb!361))

(declare-fun result!361 () Bool)

(assert (=> tb!361 (= result!361 true)))

(assert (=> b!16884 t!551))

(declare-fun b_and!405 () Bool)

(assert (= b_and!403 (and (=> t!551 result!361) b_and!405)))

(declare-fun m!25177 () Bool)

(assert (=> b!16885 m!25177))

(assert (=> b!16885 m!25177))

(declare-fun m!25179 () Bool)

(assert (=> b!16885 m!25179))

(declare-fun m!25181 () Bool)

(assert (=> b!16871 m!25181))

(assert (=> b!16871 m!25181))

(declare-fun m!25183 () Bool)

(assert (=> b!16871 m!25183))

(declare-fun m!25185 () Bool)

(assert (=> b!16874 m!25185))

(assert (=> b!16874 m!25185))

(declare-fun m!25187 () Bool)

(assert (=> b!16874 m!25187))

(declare-fun m!25189 () Bool)

(assert (=> start!2977 m!25189))

(declare-fun m!25191 () Bool)

(assert (=> b!16884 m!25191))

(assert (=> b!16884 m!25191))

(declare-fun m!25193 () Bool)

(assert (=> b!16884 m!25193))

(declare-fun m!25195 () Bool)

(assert (=> b!16883 m!25195))

(assert (=> b!16883 m!25195))

(declare-fun m!25197 () Bool)

(assert (=> b!16883 m!25197))

(declare-fun m!25199 () Bool)

(assert (=> b!16875 m!25199))

(assert (=> b!16875 m!25199))

(declare-fun m!25201 () Bool)

(assert (=> b!16875 m!25201))

(declare-fun m!25203 () Bool)

(assert (=> b!16881 m!25203))

(assert (=> b!16881 m!25203))

(declare-fun m!25205 () Bool)

(assert (=> b!16881 m!25205))

(declare-fun m!25207 () Bool)

(assert (=> b!16886 m!25207))

(assert (=> b!16886 m!25207))

(declare-fun m!25209 () Bool)

(assert (=> b!16886 m!25209))

(declare-fun m!25211 () Bool)

(assert (=> b!16877 m!25211))

(assert (=> b!16877 m!25211))

(declare-fun m!25213 () Bool)

(assert (=> b!16877 m!25213))

(declare-fun m!25215 () Bool)

(assert (=> b!16878 m!25215))

(assert (=> b!16878 m!25215))

(declare-fun m!25217 () Bool)

(assert (=> b!16878 m!25217))

(declare-fun m!25219 () Bool)

(assert (=> b!16872 m!25219))

(assert (=> b!16872 m!25219))

(declare-fun m!25221 () Bool)

(assert (=> b!16872 m!25221))

(declare-fun m!25223 () Bool)

(assert (=> b!16887 m!25223))

(assert (=> b!16887 m!25223))

(declare-fun m!25225 () Bool)

(assert (=> b!16887 m!25225))

(declare-fun m!25227 () Bool)

(assert (=> b!16889 m!25227))

(assert (=> b!16889 m!25227))

(declare-fun m!25229 () Bool)

(assert (=> b!16889 m!25229))

(declare-fun m!25231 () Bool)

(assert (=> b!16882 m!25231))

(assert (=> b!16882 m!25231))

(declare-fun m!25233 () Bool)

(assert (=> b!16882 m!25233))

(declare-fun m!25235 () Bool)

(assert (=> b!16876 m!25235))

(assert (=> b!16876 m!25235))

(declare-fun m!25237 () Bool)

(assert (=> b!16876 m!25237))

(declare-fun m!25239 () Bool)

(assert (=> b!16880 m!25239))

(assert (=> b!16880 m!25239))

(declare-fun m!25241 () Bool)

(assert (=> b!16880 m!25241))

(declare-fun m!25243 () Bool)

(assert (=> b!16873 m!25243))

(assert (=> b!16873 m!25243))

(declare-fun m!25245 () Bool)

(assert (=> b!16873 m!25245))

(declare-fun m!25247 () Bool)

(assert (=> b!16888 m!25247))

(assert (=> b!16888 m!25247))

(declare-fun m!25249 () Bool)

(assert (=> b!16888 m!25249))

(check-sat (not b_lambda!6913) (not start!2977) (not b_lambda!6933) (not b_next!43) (not b_lambda!6935) (not b_lambda!6909) (not b_lambda!6907) (not b_lambda!6917) (not b_lambda!6921) (not b_lambda!6915) (not b_lambda!6941) (not b_lambda!6931) (not b_lambda!6927) (not b_lambda!6939) (not b_lambda!6929) (not b_lambda!6919) b_and!405 (not b_lambda!6925) (not b_lambda!6937) (not b_lambda!6911) (not b_lambda!6923))
(check-sat b_and!405 (not b_next!43))
